NAME : rbg016b.tw.2094.tour
COMMENT : Length = 2094
COMMENT : Found by LKH [Keld Helsgaun] Tue Nov  7 19:33:18 2017
TYPE : TOUR
DIMENSION : 17
TOUR_SECTION
1
12
13
3
4
2
6
5
10
11
7
9
8
14
17
15
16
-1
EOF
